[[11, 66, 65, 38, 10, 58, 72, 39, 31, 25, 55, 18, 50, 9, 32, 44], [40, 12, 17, 51, 3, 16, 24, 49, 63, 23, 56, 43, 41, 42], [64, 22, 62, 33, 73, 2, 74, 28, 61, 21, 47, 69, 36], [71, 60, 70, 20, 37, 15, 57, 5, 29, 48, 45, 30, 4, 68, 6, 75], [76, 26, 67, 34, 46, 52, 27, 13, 54, 19, 8, 35, 7, 53, 14, 59]]